1 -1 -2 0
1 1 -3 0
1 1 -4 0
1 -2 -5 0
1 2 1 0
1 2 -3 0
1 -2 -4 0
1 6 7 0
1 -6 -8 0
1 -6 -5 0
1 -6 9 0
1 -6 -10 0
1 -6 3 0
1 6 -4 0
1 -11 7 0
1 11 -12 0
1 -11 9 0
1 11 -6 0
1 -11 -4 0
1 -12 13 0
1 12 14 0
1 12 -11 0
1 12 2 0
1 -12 -15 0
1 12 -6 0
1 -12 -4 0
1 4 16 0
1 4 -13 0
1 -4 14 0
1 -4 -17 0
1 4 11 0
1 4 -18 0
1 4 19 0
1 4 20 0
1 -4 -6 0
1 4 1 0
1 5 -21 0
1 -5 22 0
1 5 23 0
1 5 -24 0
1 -5 -6 0
1 5 3 0
1 -3 22 0
1 -3 -11 0
1 3 -2 0
1 -3 5 0
1 3 -24 0
1 3 -25 0
1 -3 1 0
1 3 -26 0
1 -20 7 0
1 -20 -8 0
1 20 17 0
1 20 -12 0
1 20 9 0
1 20 10 0
1 -20 25 0
1 20 4 0
1 17 8 0
1 17 22 0
1 17 12 0
1 17 -9 0
1 -17 10 0
1 -17 20 0
1 17 4 0
1 19 7 0
1 -19 -8 0
1 -19 -27 0
1 -19 -12 0
1 -19 -9 0
1 19 -10 0
1 -19 28 0
1 19 -24 0
1 -19 -4 0
1 14 8 0
1 14 27 0
1 14 -21 0
1 14 29 0
1 14 9 0
1 14 28 0
1 14 4 0
1 -10 -30 0
1 -10 31 0
1 -10 -14 0
1 -10 11 0
1 10 -32 0
1 10 33 0
1 -10 -19 0
1 10 -20 0
1 10 -6 0
1 -10 -34 0
1 -8 30 0
1 -8 31 0
1 -8 -14 0
1 -8 -17 0
1 8 32 0
1 -8 -19 0
1 8 34 0
1 -9 7 0
1 -9 -14 0
1 9 17 0
1 -9 -35 0
1 -9 18 0
1 9 -19 0
1 -9 -6 0
1 7 -13 0
1 -7 17 0
1 -7 -9 0
1 -7 18 0
1 -7 19 0
1 7 20 0
1 7 -6 0
1 -7 34 0
1 -36 31 0
1 -36 -8 0
1 -36 -29 0
1 -36 10 0
1 -36 -28 0
1 36 -37 0
1 31 28 0
1 31 37 0
1 33 30 0
1 -33 8 0
1 33 29 0
1 33 -35 0
1 33 -28 0
1 -33 37 0
1 30 -38 0
1 30 8 0
1 -30 33 0
1 -30 10 0
1 -30 28 0
1 -30 37 0
1 37 -30 0
1 -37 14 0
1 -37 33 0
1 37 -19 0
1 29 30 0
1 29 31 0
1 -29 14 0
1 29 -33 0
1 29 19 0
1 -29 37 0
1 -28 -30 0
1 28 14 0
1 -28 27 0
1 28 -32 0
1 -28 -33 0
1 28 36 0
1 -28 -19 0
1 28 39 0
1 -28 34 0
1 27 40 0
1 -27 -32 0
1 -27 -33 0
1 -27 36 0
1 27 28 0
1 -27 -39 0
1 -25 -22 0
1 25 -5 0
1 -25 41 0
1 -25 -20 0
1 -22 17 0
1 22 42 0
1 22 -41 0
1 22 -43 0
1 22 25 0
1 -24 -21 0
1 -24 -42 0
1 24 -41 0
1 -24 19 0
1 -24 43 0
1 -24 -44 0
1 -24 45 0
1 -24 -3 0
1 21 -43 0
1 -21 -14 0
1 -21 46 0
1 21 47 0
1 -21 -5 0
1 21 -41 0
1 -21 24 0
1 -21 -44 0
1 -21 -3 0
1 -42 -38 0
1 -42 13 0
1 42 21 0
1 42 -22 0
1 42 18 0
1 43 13 0
1 -43 21 0
1 43 -42 0
1 -43 -35 0
1 -43 -25 0
1 -46 -21 0
1 46 22 0
1 46 -41 0
1 -41 21 0
1 41 46 0
1 41 22 0
1 41 -24 0
1 41 25 0
1 18 -7 0
1 -18 13 0
1 -18 42 0
1 -18 -48 0
1 18 -47 0
1 -18 -5 0
1 -18 -9 0
1 -18 -36 0
1 -18 -43 0
1 -18 45 0
1 18 3 0
1 13 7 0
1 13 31 0
1 13 -42 0
1 13 -48 0
1 -13 5 0
1 -13 -12 0
1 13 -9 0
1 13 -43 0
1 13 -45 0
1 13 4 0
1 -35 -16 0
1 -35 7 0
1 -35 38 0
1 -35 -42 0
1 35 48 0
1 35 47 0
1 -35 23 0
1 35 -9 0
1 -35 33 0
1 35 -43 0
1 -35 45 0
1 -35 26 0
1 38 30 0
1 38 42 0
1 -38 48 0
1 -38 -47 0
1 -38 -23 0
1 -38 -15 0
1 38 -43 0
1 -38 -45 0
1 38 26 0
1 47 -38 0
1 47 13 0
1 47 -21 0
1 -47 -35 0
1 47 -18 0
1 -47 24 0
1 -47 45 0
1 47 -39 0
1 -47 -34 0
1 45 38 0
1 45 -13 0
1 45 21 0
1 45 47 0
1 45 -40 0
1 -45 -32 0
1 45 35 0
1 45 24 0
1 -48 -38 0
1 -48 -13 0
1 -48 35 0
1 -48 24 0
1 -48 44 0
1 44 -38 0
1 44 48 0
1 44 -35 0
1 44 -18 0
1 -32 16 0
1 32 -7 0
1 -32 8 0
1 -32 -27 0
1 -32 47 0
1 -32 23 0
1 -32 9 0
1 -32 -28 0
1 32 45 0
1 32 26 0
1 -32 34 0
1 -34 -7 0
1 -34 -16 0
1 34 -27 0
1 -34 47 0
1 -34 23 0
1 34 -32 0
1 34 -9 0
1 -34 10 0
1 34 28 0
1 -34 45 0
1 34 -26 0
1 40 16 0
1 -40 -27 0
1 -40 47 0
1 40 -23 0
1 -40 45 0
1 40 39 0
1 -39 -27 0
1 -39 -47 0
1 -39 40 0
1 39 28 0
1 39 -26 0
1 15 -38 0
1 15 -32 0
1 15 -12 0
1 15 -35 0
1 -15 -39 0
1 15 -34 0
1 -16 32 0
1 -16 -15 0
1 16 35 0
1 16 4 0
1 16 39 0
1 -16 -34 0
1 -23 -5 0
1 23 32 0
1 23 35 0
1 23 -39 0
1 23 26 0
1 23 34 0
1 26 40 0
1 -26 -23 0
1 -26 35 0
1 26 -3 0
1 -26 -39 0
1 -26 34 0
